<number of tasks>
35

<cycle time>
54

<task times>
1 29
2 3
3 5
4 22
5 6
6 14
7 2
8 5
9 22
10 30
11 23
12 30
13 23
14 2
15 19
16 29
17 2
18 2
19 19
20 29
21 6
22 10
23 16
24 23
25 5
26 5
27 5
28 40
29 2
30 5
31 5
32 1
33 40
34 2
35 2

<precedence relations>
1,2
1,5
1,10
1,12
2,3
3,4
4,11
5,6
6,7
6,8
7,14
7,18
8,9
9,13
10,14
11,28
11,33
12,18
13,28
13,33
14,15
15,16
16,21
17,20
18,19
19,20
20,21
21,22
21,25
21,30
22,23
23,24
24,27
25,26
26,27
27,28
27,33
27,34
28,29
30,31
31,32
32,33
33,35

<setup times forward>
1,2:1
1,10:1
1,12:1
2,3:1
2,5:1
2,6:1
2,7:1
2,8:1
2,9:1
2,17:1
2,19:1
2,20:1
2,21:1
2,22:1
2,23:1
2,24:1
2,25:1
2,26:2
2,27:2
2,34:2
3,10:1
3,12:1
3,13:1
3,14:1
3,15:1
3,16:1
3,18:1
3,26:1
3,27:1
3,30:1
3,31:1
3,32:1
3,34:1
4,10:1
4,11:1
4,12:1
4,13:1
4,14:1
4,15:1
4,16:1
4,18:1
4,26:1
4,27:1
4,30:1
4,31:1
4,32:1
4,34:1
5,2:1
5,10:1
5,11:1
5,12:1
6,2:1
6,10:1
6,11:1
6,12:1
7,2:1
7,10:1
7,11:1
7,12:1
7,13:1
7,14:1
7,18:1
8,2:1
8,10:1
8,11:1
8,12:1
8,14:1
8,15:1
8,16:1
8,18:1
8,26:1
8,27:1
8,30:1
8,31:1
8,32:1
8,34:1
9,2:1
9,10:1
9,11:1
9,12:1
9,13:1
9,14:1
9,15:1
9,16:1
9,18:1
9,26:1
9,27:1
9,30:1
9,31:1
9,32:1
9,34:1
10,3:1
10,4:1
10,5:1
10,6:1
10,7:1
10,8:1
10,9:1
10,17:1
10,19:1
10,20:1
11,5:1
11,6:1
11,7:1
11,8:1
11,9:1
11,17:1
11,19:1
11,20:1
11,21:1
11,22:1
11,23:1
11,24:1
11,25:1
11,26:2
11,27:2
11,28:2
11,34:2
12,3:1
12,4:1
12,5:1
12,6:1
12,7:1
12,8:1
12,9:1
12,17:1
13,3:1
13,4:1
13,7:1
13,17:1
13,19:1
13,20:1
13,21:1
13,22:1
13,23:1
13,24:1
13,25:1
13,26:2
13,27:2
13,28:2
13,34:2
14,3:1
14,4:1
14,8:1
14,9:1
14,17:1
14,19:1
14,20:1
15,3:1
15,4:1
15,8:1
15,9:1
15,17:1
15,19:1
15,20:1
16,3:1
16,4:1
16,8:1
16,9:1
16,17:1
16,19:1
16,20:1
16,21:1
17,2:1
17,10:1
17,11:1
17,12:1
17,13:1
17,14:1
17,15:1
17,16:1
17,18:1
18,3:1
18,4:1
18,8:1
18,9:1
18,17:1
18,19:1
19,2:1
19,10:1
19,11:1
19,13:1
19,14:1
19,15:1
19,16:1
20,2:1
20,10:1
20,11:1
20,13:1
20,14:1
20,15:1
20,16:1
21,2:1
21,11:1
21,13:1
21,30:1
22,2:1
22,11:1
22,13:1
22,26:1
22,30:1
22,31:1
22,32:1
23,2:1
23,11:1
23,13:1
23,26:1
23,30:1
23,31:1
23,32:1
24,2:1
24,11:1
24,13:1
24,26:1
24,27:1
24,30:1
24,31:1
24,32:1
25,2:1
25,11:1
25,13:1
25,26:1
25,30:1
25,31:1
25,32:1
26,2:2
26,3:1
26,4:1
26,8:1
26,9:1
26,11:2
26,13:2
26,22:1
26,23:1
26,24:1
26,30:2
26,31:2
26,32:2
27,2:2
27,3:1
27,4:1
27,8:1
27,9:1
27,11:2
27,13:2
27,30:2
27,31:2
27,32:2
27,33:2
28,30:2
28,31:2
28,32:2
28,33:2
28,35:2
29,30:2
29,31:2
29,32:2
29,33:2
29,35:2
30,3:1
30,4:1
30,8:1
30,9:1
30,22:1
30,23:1
30,24:1
30,25:1
30,26:2
30,27:2
30,28:2
30,29:2
30,34:2
31,3:1
31,4:1
31,8:1
31,9:1
31,22:1
31,23:1
31,24:1
31,25:1
31,26:2
31,27:2
31,28:2
31,29:2
31,34:2
32,3:1
32,4:1
32,8:1
32,9:1
32,22:1
32,23:1
32,24:1
32,25:1
32,26:2
32,27:2
32,28:2
32,29:2
32,34:2
33,28:2
33,29:2
33,34:2
34,2:2
34,3:1
34,4:1
34,8:1
34,9:1
34,11:2
34,13:2
34,30:2
34,31:2
34,32:2
34,33:2
34,35:2
35,28:2
35,29:2
35,34:2

<setup times backward>
2,1:1
2,5:1
2,6:1
2,7:1
2,8:1
2,9:1
2,17:1
2,19:1
2,20:1
2,21:1
2,22:1
2,23:1
2,24:1
2,25:1
2,26:2
2,27:2
2,34:2
3,26:1
3,27:1
3,34:1
4,26:1
4,27:1
4,34:1
8,26:1
8,27:1
8,34:1
9,26:1
9,27:1
9,34:1
10,1:1
10,3:1
10,4:1
10,5:1
10,6:1
10,7:1
10,8:1
10,9:1
10,17:1
10,19:1
10,20:1
11,1:1
11,3:1
11,4:1
11,5:1
11,6:1
11,7:1
11,8:1
11,9:1
11,17:1
11,19:1
11,20:1
11,21:1
11,22:1
11,23:1
11,24:1
11,25:1
11,26:2
11,27:2
11,34:2
12,1:1
12,3:1
12,4:1
12,5:1
12,6:1
12,7:1
12,8:1
12,9:1
12,17:1
13,1:1
13,3:1
13,4:1
13,5:1
13,6:1
13,7:1
13,8:1
13,9:1
13,17:1
13,19:1
13,20:1
13,21:1
13,22:1
13,23:1
13,24:1
13,25:1
13,26:2
13,27:2
13,34:2
14,1:1
14,3:1
14,4:1
14,5:1
14,6:1
14,7:1
14,8:1
14,9:1
14,17:1
14,19:1
14,20:1
15,1:1
15,3:1
15,4:1
15,5:1
15,6:1
15,7:1
15,8:1
15,9:1
15,17:1
15,19:1
15,20:1
16,1:1
16,3:1
16,4:1
16,5:1
16,6:1
16,7:1
16,8:1
16,9:1
16,17:1
16,19:1
16,20:1
18,1:1
18,3:1
18,4:1
18,5:1
18,6:1
18,7:1
18,8:1
18,9:1
18,17:1
22,26:1
23,26:1
24,26:1
30,1:1
30,3:1
30,4:1
30,5:1
30,6:1
30,7:1
30,8:1
30,9:1
30,17:1
30,19:1
30,20:1
30,21:1
30,22:1
30,23:1
30,24:1
30,25:1
30,26:2
30,27:2
30,28:2
30,29:2
30,34:2
31,1:1
31,3:1
31,4:1
31,5:1
31,6:1
31,7:1
31,8:1
31,9:1
31,17:1
31,19:1
31,20:1
31,21:1
31,22:1
31,23:1
31,24:1
31,25:1
31,26:2
31,27:2
31,28:2
31,29:2
31,34:2
32,1:1
32,3:1
32,4:1
32,5:1
32,6:1
32,7:1
32,8:1
32,9:1
32,17:1
32,19:1
32,20:1
32,21:1
32,22:1
32,23:1
32,24:1
32,25:1
32,26:2
32,27:2
32,28:2
32,29:2
32,34:2
33,1:1
33,3:1
33,4:1
33,5:1
33,6:1
33,7:1
33,8:1
33,9:1
33,17:1
33,19:1
33,20:1
33,21:1
33,22:1
33,23:1
33,24:1
33,25:1
33,26:2
33,27:2
33,28:2
33,29:2
33,34:2
35,1:1
35,3:1
35,4:1
35,5:1
35,6:1
35,7:1
35,8:1
35,9:1
35,17:1
35,19:1
35,20:1
35,21:1
35,22:1
35,23:1
35,24:1
35,25:1
35,26:2
35,27:2
35,28:2
35,29:2
35,34:2

<end>

<optimal SALBP-1 value>
9


<rand seed>
467321153

